Selected objective sense:  MINIMIZE
Selected objective  name:  OBJ
Selected RHS        name:  RHS1
Selected bound      name:  BND1
CPXPARAM_Preprocessing_Presolve                  0
CPXPARAM_LPMethod                                4
CPXPARAM_Threads                                 1
CPXPARAM_SolutionType                            2
CPXPARAM_TimeLimit                               3600
Tried aggregator 0 times.
Reduced presolve eliminated 523 rows and 523 columns.
Reduced LP has 1621 rows, 4373 columns, and 354277 nonzeros.
Presolve time = 0.16 sec. (57.99 ticks)
Parallel mode: none, using 1 thread for barrier
Number of nonzeros in lower triangle of A*A' = 141115
Using Approximate Minimum Degree ordering
Total time for automatic ordering = 0.04 sec. (88.05 ticks)
Summary statistics for Cholesky factor:
  Rows in Factor            = 1621
  Integer space required    = 128960
  Total non-zeros in factor = 147296
  Total FP ops to factor    = 14317382
 Itn      Primal Obj        Dual Obj  Prim Inf Upper Inf  Dual Inf Inf Ratio
   0   7.5748747e+08  -6.0362309e+06  1.04e+08  0.00e+00  1.36e+05  1.00e+00
   1   2.1140273e+08  -6.8400906e+06  2.98e+07  5.01e-12  2.09e+04  9.71e-04
   2   1.9444833e+07  -1.1000537e+06  2.77e+06  7.15e-12  2.74e+03  3.56e-03
   3   6.5407570e+06  -4.3143958e+05  9.37e+05  5.59e-12  9.70e+02  5.24e-03
   4   1.0575857e+06  -1.4774403e+05  1.57e+05  4.69e-12  2.53e+02  1.65e-02
   5   6.6510957e+05  -1.1359982e+05  1.02e+05  1.25e-11  1.52e+02  1.91e-02
   6   2.4726407e+05  -1.0512876e+05  4.63e+04  1.90e-11  6.15e+01  1.78e-02
   7   3.5088014e+04  -5.5495139e+04  1.10e+04  5.62e-12  2.05e+01  3.45e-02
   8   1.4674148e+04   1.3104065e+04  1.66e+01  1.81e-11  4.50e-01  1.46e+00
   9   1.4602236e+04   1.3983699e+04  6.93e+00  1.68e-11  1.76e-01  3.95e+00
  10   1.4592277e+04   1.4019829e+04  6.23e+00  1.35e-11  1.64e-01  4.29e+00
  11   1.4590438e+04   1.4279911e+04  6.14e+00  9.02e-12  6.95e-02  1.27e+01
  12   1.4546909e+04   1.4381355e+04  4.34e+00  7.27e-12  2.60e-02  3.64e+01
  13   1.4517454e+04   1.4418633e+04  3.04e+00  9.28e-12  1.16e-02  7.16e+01
  14   1.4508681e+04   1.4431974e+04  2.57e+00  1.37e-11  7.92e-03  9.61e+01
  15   1.4500173e+04   1.4443986e+04  2.12e+00  1.65e-11  4.53e-03  1.45e+02
  16   1.4494135e+04   1.4453880e+04  1.79e+00  1.56e-11  1.91e-03  2.50e+02
  17   1.4491680e+04   1.4458753e+04  1.66e+00  2.81e-11  7.23e-04  3.94e+02
  18   1.4489195e+04   1.4459590e+04  1.52e+00  2.56e-11  4.80e-04  4.50e+02
  19   1.4480845e+04   1.4460607e+04  1.03e+00  1.84e-11  3.53e-04  4.96e+02
  20   1.4479620e+04   1.4460990e+04  9.48e-01  1.09e-11  3.22e-04  5.23e+02
  21   1.4478644e+04   1.4461058e+04  8.84e-01  3.13e-11  3.17e-04  5.28e+02
  22   1.4478515e+04   1.4461096e+04  8.77e-01  2.01e-11  3.12e-04  5.33e+02
  23   1.4477828e+04   1.4461669e+04  8.33e-01  2.54e-11  2.61e-04  5.96e+02
  24   1.4475730e+04   1.4463118e+04  6.89e-01  2.81e-11  1.67e-04  8.34e+02
  25   1.4474863e+04   1.4463821e+04  6.32e-01  3.45e-11  1.13e-04  1.02e+03
  26   1.4473529e+04   1.4464546e+04  5.45e-01  4.35e-11  5.07e-05  1.41e+03
  27   1.4472845e+04   1.4464906e+04  5.00e-01  1.21e-11  2.58e-05  1.75e+03
  28   1.4472004e+04   1.4465049e+04  4.42e-01  2.89e-11  2.00e-05  1.88e+03
  29   1.4468842e+04   1.4465341e+04  2.23e-01  1.25e-11  9.69e-06  2.36e+03
  30   1.4467649e+04   1.4465827e+04  1.28e-01  6.23e-12  3.00e-06  4.71e+03
  31   1.4467242e+04   1.4465915e+04  9.32e-02  8.21e-12  2.19e-06  5.81e+03
  32   1.4466557e+04   1.4466006e+04  3.31e-02  1.38e-11  1.44e-06  7.87e+03
  33   1.4466296e+04   1.4466194e+04  4.86e-03  7.56e-12  3.33e-07  3.41e+04
  34   1.4466270e+04   1.4466240e+04  1.87e-03  1.12e-11  7.57e-08  1.87e+05
  35   1.4466261e+04   1.4466248e+04  1.03e-03  1.88e-11  1.09e-08  1.21e+06
  36   1.4466251e+04   1.4466249e+04  1.35e-04  1.06e-11  1.44e-09  7.10e+06
  37   1.4466250e+04   1.4466250e+04  2.40e-05  1.38e-11  2.12e-10  3.75e+08
Barrier time = 1.22 sec. (3770.56 ticks)

Total time on 1 threads = 1.22 sec. (3770.56 ticks)
Solve time: 1.223369385
Barrier iterations: 37
